Route #1: 95 94 96 97
Route #2: 147 144 149 142 141 143 148 85 90 93 81 91
Route #3: 76 89 87 82 92 83 88 80 79 84 78 86 77 138
Route #4: 103 111 13 5 12 11 4 10 18 6 17 3 15
Route #5: 133 126 121 128 124 116 136
Route #6: 110 101 99 105 8 9 16 1 14 2 7 102 109 100 104 106 113
Route #7: 107 98 112
Route #8: 108 146 139 140 145 150
Route #9: 24 120 125 114 115 118 123 117 129 74 68 70 67 30 38 35
Route #10: 19 22 20 34
Route #11: 21 23 36 29 27 32 33 31 25 37 28
Route #12: 58 46 43 49 51 48 50 41 39 44 45 40 52
Route #13: 55 63 56 61
Route #14: 54 59 42 47 26
Route #15: 64 57 137 130 131 132 134 122 127 119 135 65
Route #16: 53 60
Route #17: 62 73 72 66 69 71 75
Cost 3473.2892030956227